45211
1,30,51,52,55,57,54,69,70,71,73,72,58,59,60,61,62,63,64,65,66,67,68,74,75,76,77,78,79,83,86,87,89,91,90,81,80,82,162,166,161,160,157,158,159,163,168,116,117,102,156,98,96,97,93,88,94,92,84,85,50,48,49,47,56,53,34,35,43,44,42,45,46,103,41,36,38,39,118,40,105,104,119,120,123,124,121,112,111,107,106,108,109,110,99,95,100,101,114,115,113,122,125,167,134,133,136,184,141,185,186,175,171,135,170,169,164,165,172,174,173,176,177,189,190,187,188,193,194,182,181,180,178,179,183,195,196,202,201,200,199,198,191,192,197,153,155,154,152,151,150,149,148,147,146,25,142,138,143,144,145,140,139,132,126,131,130,129,128,37,127,29,137,24,23,22,28,27,26,33,31,32,20,21,19,11,12,18,17,10,9,7,6,8,4,5,2,13,14,15,16,3,1
